
Gurobi 9.1.1 (linux64) logging started Sat Oct  9 23:36:00 2021

Changed value of parameter LogFile to results/max2cut_numv12979/max2cut_numv12979_Chicago_peel_decompose_unweighted_BQO_log.txt
   Prev:   Default: 
Gurobi Optimizer version 9.1.1 build v9.1.1rc0 (linux64)
Thread count: 20 physical cores, 40 logical processors, using up to 10 threads
Optimize a model with 11138 rows, 22276 columns and 22276 nonzeros
Model fingerprint: 0x5fb21230
Model has 59844 quadratic objective terms
Variable types: 0 continuous, 22276 integer (22276 binary)
Coefficient statistics:
  Matrix range     [1e+00, 1e+00]
  Objective range  [5e-18, 4e+00]
  QObjective range [4e-05, 8e+00]
  Bounds range     [1e+00, 1e+00]
  RHS range        [1e+00, 1e+00]
Found heuristic solution: objective -0.0000000
Presolve removed 11138 rows and 11139 columns
Presolve time: 0.07s
Presolved: 18784 rows, 29921 columns, 56352 nonzeros
Variable types: 0 continuous, 29921 integer (29921 binary)
Found heuristic solution: objective 10876.000000
Presolved: 18721 rows, 29030 columns, 55400 nonzeros


Root relaxation: objective -1.878300e+04, 10573 iterations, 0.14 seconds

    Nodes    |    Current Node    |     Objective Bounds      |     Work
 Expl Unexpl |  Obj  Depth IntInf | Incumbent    BestBd   Gap | It/Node Time

     0     0 18783.0000    0 11072 10876.0000 18783.0000  72.7%     -    0s
H    0     0                    14371.000000 18783.0000  30.7%     -    0s
H    0     0                    14492.000000 18783.0000  29.6%     -    0s
H    0     0                    14523.000000 18783.0000  29.3%     -    1s
H    0     0                    14525.000000 18783.0000  29.3%     -    1s
H    0     0                    14531.000000 18783.0000  29.3%     -    1s
H    0     0                    14537.000000 18772.0000  29.1%     -    1s
     0     0 17946.0000    0 11654 14537.0000 17946.0000  23.5%     -    1s
H    0     0                    14552.000000 17946.0000  23.3%     -    2s
     0     0 17946.0000    0 11654 14552.0000 17946.0000  23.3%     -    2s
H    0     0                    14576.000000 17946.0000  23.1%     -    2s
     0     0 17749.5000    0 11739 14576.0000 17749.5000  21.8%     -    3s
H    0     0                    14577.000000 17749.5000  21.8%     -    3s
H    0     0                    14584.000000 17749.5000  21.7%     -    3s
     0     0 17748.5000    0 11743 14584.0000 17748.5000  21.7%     -    3s
H    0     0                    14630.000000 17748.5000  21.3%     -    4s
H    0     0                    14672.000000 17748.5000  21.0%     -    4s
H    0     0                    15425.000000 17748.5000  15.1%     -    4s
     0     0 17721.0893    0 11775 15425.0000 17721.0893  14.9%     -    4s
H    0     0                    15461.000000 17721.0893  14.6%     -    4s
H    0     0                    15603.000000 17721.0893  13.6%     -    4s
     0     0 17721.0476    0 11775 15603.0000 17721.0476  13.6%     -    4s
     0     0 17675.0000    0 11796 15603.0000 17675.0000  13.3%     -    6s
     0     0 17675.0000    0 11591 15603.0000 17675.0000  13.3%     -    6s
H    0     0                    15608.000000 17674.5000  13.2%     -    7s
H    0     2                    15614.000000 17674.5000  13.2%     -    8s
     0     2 17674.5000    0 11591 15614.0000 17674.5000  13.2%     -    8s
H   35    46                    15616.000000 17668.4167  13.1%   289    8s
H   36    46                    15617.000000 17668.4167  13.1%   281    8s
H   75    86                    15634.000000 17668.4167  13.0%   148    9s
H  134   145                    16232.000000 17668.4167  8.85%  93.4   10s

Cutting planes:
  Gomory: 278
  MIR: 535
  Zero half: 451
  RLT: 221
  BQP: 7

Explored 144 nodes (54893 simplex iterations) in 10.02 seconds
Thread count was 10 (of 40 available processors)

Solution count 10: 16232 15634 15617 ... 14672

Time limit reached
Best objective 1.623200000000e+04, best bound 1.766800000000e+04, gap 8.8467%
